
Gurobi 9.1.2 (linux64, gurobi_cl) logging started Fri Jul 30 13:53:32 2021

Using license file /opt/gurobi/gurobi.lic
Set parameter TimeLimit to value 600
Set parameter MIPFocus to value 2
Set parameter LogFile to value 912-MIPFocus2-glass4-2.log
Set parameter Seed to value 2

Gurobi Optimizer version 9.1.2 build v9.1.2rc0 (linux64)
Copyright (c) 2021, Gurobi Optimization, LLC

Read MPS format model from file /nfs/models/mip/glass4.mps.bz2
Reading time = 0.00 seconds
glass4: 396 rows, 322 columns, 1815 nonzeros
Thread count: 4 physical cores, 8 logical processors, using up to 8 threads
Optimize a model with 396 rows, 322 columns and 1815 nonzeros
Model fingerprint: 0x0a9d9037
Variable types: 20 continuous, 302 integer (0 binary)
Coefficient statistics:
  Matrix range     [1e+00, 8e+06]
  Objective range  [1e+00, 1e+06]
  Bounds range     [1e+00, 8e+02]
  RHS range        [1e+00, 8e+06]
Presolve removed 6 rows and 6 columns
Presolve time: 0.00s
Presolved: 390 rows, 316 columns, 1803 nonzeros
Variable types: 19 continuous, 297 integer (297 binary)
Found heuristic solution: objective 3.133356e+09
Presolved: 390 rows, 316 columns, 1803 nonzeros


Root relaxation: objective 8.000024e+08, 36 iterations, 0.00 seconds

    Nodes    |    Current Node    |     Objective Bounds      |     Work
 Expl Unexpl |  Obj  Depth IntInf | Incumbent    BestBd   Gap | It/Node Time

     0     0 8.0000e+08    0   72 3.1334e+09 8.0000e+08  74.5%     -    0s
H    0     0                    2.550016e+09 8.0000e+08  68.6%     -    0s
H    0     0                    2.500021e+09 8.0000e+08  68.0%     -    0s
H    0     0                    2.400022e+09 8.0000e+08  66.7%     -    0s
H    0     0                    2.400020e+09 8.0000e+08  66.7%     -    0s
     0     0 8.0000e+08    0   72 2.4000e+09 8.0000e+08  66.7%     -    0s
     0     0 8.0000e+08    0   72 2.4000e+09 8.0000e+08  66.7%     -    0s
H    0     0                    2.300020e+09 8.0000e+08  65.2%     -    0s
     0     2 8.0000e+08    0   72 2.3000e+09 8.0000e+08  65.2%     -    0s
H   33    40                    2.233352e+09 8.0000e+08  64.2%   9.5    0s
H  186   232                    2.200017e+09 8.0000e+08  63.6%   4.3    0s
H  217   232                    2.100018e+09 8.0000e+08  61.9%   4.0    0s
H  243   434                    2.033350e+09 8.0000e+08  60.7%   4.0    0s
H  501   618                    1.950017e+09 8.0000e+08  59.0%   3.7    0s
H 1239  1038                    1.950017e+09 8.0000e+08  59.0%   5.9    0s
H 1268  1011                    1.950015e+09 8.0000e+08  59.0%   7.6    0s
H 1274   967                    1.900014e+09 8.0000e+08  57.9%   7.7    0s
H 1310   948                    1.883348e+09 8.0000e+08  57.5%   8.1    0s
H 1316   901                    1.800013e+09 8.0000e+08  55.6%   8.2    0s
H 1325   872                    1.800013e+09 8.0000e+08  55.6%   8.3    0s
H 1331   830                    1.750013e+09 8.0000e+08  54.3%   8.3    0s
H 1361   817                    1.750013e+09 8.0000e+08  54.3%   8.5    0s
H 4866  2530                    1.700014e+09 8.0001e+08  52.9%  14.8    2s
H 5013  2557                    1.675014e+09 8.0001e+08  52.2%  15.0    3s
H 5044  2351                    1.550013e+09 8.0001e+08  48.4%  15.0    3s
 12359  7521 1.3500e+09   43   49 1.5500e+09 8.1624e+08  47.3%  17.9    5s
*15562  8679              52    1.500016e+09 8.1957e+08  45.4%  18.0    5s
*15563  8678              52    1.500016e+09 8.1957e+08  45.4%  18.0    5s
*15564  8678              52    1.500016e+09 8.1957e+08  45.4%  18.0    5s
 28402 15391 infeasible   54      1.5000e+09 8.5834e+08  42.8%  19.8   10s
 42081 22348 1.5000e+09   41   52 1.5000e+09 8.7501e+08  41.7%  21.0   15s
H43125 22537                    1.500014e+09 8.7501e+08  41.7%  21.1   15s
 59251 31248 9.1429e+08   37   63 1.5000e+09 8.7501e+08  41.7%  21.3   20s
*66342 31919              38    1.500013e+09 8.7778e+08  41.5%  21.2   21s
 73526 34136 1.4000e+09   61   11 1.5000e+09 8.9474e+08  40.4%  22.1   25s
 84021 38388 1.3000e+09   32   51 1.5000e+09 9.0001e+08  40.0%  23.1   30s
H85762 38821                    1.500013e+09 9.0001e+08  40.0%  23.2   30s
 98017 43680 1.5000e+09   54   57 1.5000e+09 9.0001e+08  40.0%  23.6   35s
*98760 34052              79    1.400014e+09 9.0001e+08  35.7%  23.6   35s
H102254 30739                    1.375015e+09 9.0001e+08  34.5%  24.3   37s
 105222 29804 infeasible   54      1.3750e+09 9.0277e+08  34.3%  25.4   40s
 112205 26584 infeasible   37      1.3750e+09 1.0000e+09  27.3%  27.6   45s
 118362 24323 1.2077e+09   48   47 1.3750e+09 1.0000e+09  27.3%  29.5   50s
H126163 21093                    1.350013e+09 1.1000e+09  18.5%  30.7   53s
*126171 13228              61    1.200013e+09 1.1000e+09  8.33%  30.7   53s
 131332  6868 infeasible   41      1.2000e+09 1.1500e+09  4.17%  30.0   55s

Cutting planes:
  Gomory: 74
  Cover: 935
  Implied bound: 166
  Projected implied bound: 7
  MIR: 57
  Flow cover: 461
  GUB cover: 1
  Inf proof: 103
  RLT: 56
  Relax-and-lift: 156

Explored 132950 nodes (3962678 simplex iterations) in 55.20 seconds
Thread count was 8 (of 8 available processors)

Solution count 10: 1.20001e+09 1.35001e+09 1.37501e+09 ... 1.50002e+09

Optimal solution found (tolerance 1.00e-04)
Best objective 1.200012600000e+09, best bound 1.200003400000e+09, gap 0.0008%
